proyfinal/src/viki/013/experimentInOfficeAgust.take6.output/52a77d6d-20de-4b52-af97-002afef489cf.als.dat
{'cnf.clauses': '118081',
 'cnf.totvars': '69608',
 'conflict literals': '17',
 'conflicts': '10',
 'decisions': '1510',
 'memused.mb': '16.73',
 'outcome': 'UNSAT',
 'propagations': '22685',
 'restarts': '1',
 'solver.msecs': 34,
 'task.msecs': 85}
