proyfinal/src/viki/013/experimentInOfficeAgust.take6.output/52a77d6d-20de-4b52-af97-002afef489cf.als.out
Reading from standard input... Use '--help' for help.
============================[ Problem Statistics ]=============================
|                                                                             |
|  Number of variables:         69608                                         |
|  Number of clauses:          118081                                         |
|  Parse time:                   0.03 s                                       |
|                                                                             |
============================[ Search Statistics ]==============================
| Conflicts |          ORIGINAL         |          LEARNT          | Progress |
|           |    Vars  Clauses Literals |    Limit  Clauses Lit/Cl |          |
===============================================================================
===============================================================================
restarts              : 1
conflicts             : 10             (293 /sec)
decisions             : 1510           (0.00 % random) (44250 /sec)
propagations          : 22685          (664781 /sec)
conflict literals     : 17             (0.00 % deleted)
Memory used           : 16.73 MB
CPU time              : 0.034124 s

UNSATISFIABLE
